--- Job LAB1_Ejercicio6.gms Start 02/23/24 17:27:21 46.1.0 0f6c6ca6 WEX-WEI x86 64bit/MS Windows
--- Applying:
    A:\GAMS\gmsprmNT.txt
--- GAMS Parameters defined
    Input E:\Escritorio\Programacion\RunningLanguages\L_Gams\Lab1\LAB1_Ejercicio6.gms
    PageSize 0
    ScrDir E:\Escritorio\Programacion\RunningLanguages\L_Gams\Lab1\225a\
    SysDir A:\GAMS\
    LogOption 3
    ErrMsg 1
    ErrorLog 99
    IDE 1
    LstTitleLeftAligned 1
Licensee: GAMS Demo, for EULA and demo limitations see   G240131/0001CB-GEN
          https://www.gams.com/latest/docs/UG%5FLicense.html         DC0000
          A:\GAMS\gamslice.txt
          Demo license for demonstration and instructional purposes only
Processor information: 1 socket(s), 6 core(s), and 12 thread(s) available
GAMS 46.1.0   Copyright (C) 1987-2024 GAMS Development. All rights reserved
--- Starting compilation
--- LAB1_Ejercicio6.gms(33) 2 Mb
--- Starting execution: elapsed 0:00:00.045
--- Generating LP model Lab1_Ejercicio6
--- LAB1_Ejercicio6.gms(32) 3 Mb
---   6 rows  10 columns  18 non-zeroes
--- Range statistics (absolute non-zero finite values)
--- RHS       [min, max] : [ 1.100E+01, 6.400E+01] - Zero values observed as well
--- Bound     [min, max] : [        NA,        NA] - Zero values observed as well
--- Matrix    [min, max] : [ 1.000E+00, 1.300E+01]
--- Executing CPLEX (Solvelink=2): elapsed 0:00:00.141

IBM ILOG CPLEX   46.1.0 0f6c6ca6 Feb 17, 2024          WEI x86 64bit/MS Window

*** This solver runs with a demo license. No commercial use.
--- GMO setup time: 0.00s
--- GMO memory 0.50 Mb (peak 0.50 Mb)
--- Dictionary memory 0.00 Mb
--- Cplex 22.1.1.0 link memory 0.00 Mb (peak 0.00 Mb)
--- Starting Cplex

Version identifier: 22.1.1.0 | 2022-11-27 | 9160aff4d
CPXPARAM_Advance                                 0
CPXPARAM_Simplex_Display                         2
CPXPARAM_MIP_Display                             4
CPXPARAM_MIP_Pool_Capacity                       0
CPXPARAM_MIP_Tolerances_AbsMIPGap                0
Tried aggregator 1 time.
LP Presolve eliminated 5 rows and 10 columns.
All rows and columns eliminated.
Presolve time = 0.00 sec. (0.01 ticks)

--- LP status (1): optimal.
--- Cplex Time: 0.02sec (det. 0.01 ticks)


Optimal solution found
Objective:         1573.000000

--- Reading solution for model Lab1_Ejercicio6
*** Status: Normal completion
--- Job LAB1_Ejercicio6.gms Stop 02/23/24 17:27:21 elapsed 0:00:00.287
